unsat
(:max-memory         18.44
 :memory             18.34
 :nlsat-arith-var    3
 :nlsat-atoms        7
 :nlsat-bool-var     1
 :nlsat-clauses      6
 :nlsat-conflicts    3
 :nlsat-propagations 7
 :nlsat-stages       3
 :num-allocs         64196
 :rlimit-count       1031
 :time               0.00
 :total-time         0.02)
